Route #1: 3 78 34 35 65 71 66 20 70
Route #2: 52 7 19 49 64 11 62 88
Route #3: 18 8 46 36 47 48 82
Route #4: 39 67 23 56 75
Route #5: 92 91 44 14 38 86 16
Route #6: 31 10 63 90 32 30
Route #7: 26 4 25 55 54 12 28
Route #8: 58 2 57 15 43 42 87 97 95
Route #9: 68 80 24 29 79 77 76
Route #10: 21 72 74 22 41 73 40 53
Route #11: 60 5 84 17 45 83 89
Route #12: 93 61 85 100 98 37
Route #13: 13 94 59 99 96 6
Route #14: 50 33 81 9 51 1 69 27
Cost 1098